<number of tasks>
89

<cycle time>
127

<task times>
1 28
2 17
3 7
4 10
5 12
6 16
7 13
8 8
9 13
10 24
11 16
12 24
13 12
14 20
15 22
16 22
17 22
18 47
19 6
20 12
21 6
22 22
23 7
24 14
25 68
26 15
27 8
28 74
29 32
30 11
31 18
32 15
33 42
34 27
35 38
36 38
37 26
38 35
39 31
40 8
41 14
42 8
43 8
44 8
45 17
46 7
47 19
48 12
49 24
50 26
51 22
52 14
53 27
54 60
55 4
56 2
57 1
58 9
59 5
60 6
61 7
62 12
63 2
64 11
65 14
66 6
67 21
68 14
69 1
70 6
71 21
72 11
73 14
74 28
75 12
76 11
77 30
78 22
79 14
80 31
81 18
82 16
83 7
84 38
85 8
86 31
87 29
88 12
89 18

<precedence relations>
1,2
2,3
3,4
4,5
4,6
4,7
4,8
4,9
5,10
6,11
7,12
8,18
9,18
10,14
11,12
12,13
13,14
14,15
14,16
15,17
16,54
17,18
18,19
18,20
19,22
20,21
20,28
21,54
22,23
23,24
24,25
25,26
25,27
25,29
26,37
27,33
28,29
29,31
30,54
31,32
32,33
33,34
34,35
35,36
35,37
36,38
37,38
38,39
39,40
39,41
39,42
39,43
40,44
41,53
42,53
43,45
44,52
45,46
46,47
47,48
47,49
49,50
50,51
51,52
52,53
53,68
53,69
53,70
53,71
54,55
55,56
56,57
57,58
57,59
57,60
57,61
57,62
57,63
57,64
57,65
57,66
58,67
59,67
60,67
61,67
62,67
63,67
64,67
65,67
66,67
67,73
68,72
69,72
70,72
71,73
72,78
72,80
73,74
74,75
74,76
75,77
76,81
77,78
78,79
79,81
80,81
81,82
81,84
81,85
82,83
83,86
84,86
85,86
86,87
87,88
87,89

<setup times forward>
1,30:1
2,30:1
3,30:1
4,9:2
4,30:1
5,9:2
5,10:3
5,12:3
5,13:3
5,30:1
6,9:2
6,10:3
6,30:1
7,9:2
7,10:3
7,12:3
7,30:1
8,9:2
8,10:3
8,12:3
8,13:3
8,14:3
8,15:3
8,16:1
8,17:3
8,18:2
8,30:1
9,5:2
9,6:2
9,7:2
9,8:2
9,10:5
9,11:2
9,12:5
9,13:5
9,14:5
9,15:5
9,16:3
9,17:5
9,30:3
10,6:3
10,7:3
10,8:3
10,9:5
10,11:3
10,30:2
11,9:2
11,10:3
11,12:3
11,30:1
12,5:3
12,8:3
12,9:5
12,30:2
13,5:3
13,8:3
13,9:5
13,30:2
14,8:3
14,9:5
14,16:2
14,30:2
15,8:3
15,9:5
15,16:2
15,30:2
16,8:1
16,9:3
16,15:2
16,17:2
16,18:3
16,19:3
16,20:3
16,21:3
16,22:3
16,23:3
16,24:3
16,32:3
16,33:3
16,34:3
16,35:3
16,36:1
16,37:1
16,38:1
16,39:4
16,40:4
16,41:3
16,42:1
16,43:4
16,44:4
16,45:4
16,46:4
16,47:4
16,48:5
16,49:4
16,50:1
16,51:1
16,52:3
16,53:3
16,54:1
16,68:2
16,69:3
16,70:2
16,71:5
16,72:2
16,80:2
17,8:3
17,9:5
17,16:2
17,18:5
17,30:2
18,16:3
18,30:3
19,16:3
19,28:3
19,30:3
19,54:4
19,55:4
19,56:4
19,57:4
19,63:4
19,67:2
20,16:3
20,25:3
20,26:3
20,27:3
20,28:3
20,30:3
21,16:3
21,25:3
21,26:3
21,27:3
21,28:3
21,29:3
21,30:3
21,31:3
21,36:2
21,37:2
21,38:2
21,39:1
21,40:1
21,42:4
21,43:1
21,44:1
21,45:1
21,46:1
21,47:1
21,48:2
21,49:1
21,50:4
21,51:4
21,54:4
21,68:1
21,70:1
21,71:2
21,72:1
21,80:1
22,16:3
22,28:3
22,30:3
22,54:4
22,55:4
22,56:4
22,57:4
22,63:4
22,67:2
23,16:3
23,28:3
23,30:3
23,54:4
23,55:4
23,56:4
23,57:4
23,63:4
23,67:2
24,16:3
24,25:3
24,28:3
24,30:3
24,54:4
24,55:4
24,56:4
24,57:4
24,63:4
24,67:2
25,20:3
25,21:3
25,54:1
25,55:1
25,56:1
25,57:1
25,58:3
25,59:3
25,60:3
25,61:3
25,62:3
25,63:1
25,64:3
25,65:3
25,66:3
25,67:5
26,20:3
26,21:3
26,32:3
26,33:3
26,34:3
26,35:3
26,36:1
26,37:1
26,54:1
26,55:1
26,56:1
26,57:1
26,58:3
26,59:3
26,60:3
26,61:3
26,62:3
26,63:1
26,64:3
26,65:3
26,66:3
26,67:5
27,20:3
27,21:3
27,32:3
27,33:3
27,54:1
27,55:1
27,56:1
27,57:1
27,58:3
27,59:3
27,60:3
27,61:3
27,62:3
27,63:1
27,64:3
27,65:3
27,66:3
27,67:5
28,19:3
28,21:3
28,22:3
28,23:3
28,24:3
28,54:1
28,55:1
28,56:1
28,57:1
28,58:3
28,59:3
28,60:3
28,61:3
28,62:3
28,63:1
28,64:3
28,65:3
28,66:3
28,67:5
29,21:3
29,54:1
29,55:1
29,56:1
29,57:1
29,58:3
29,59:3
29,60:3
29,61:3
29,62:3
29,63:1
29,64:3
29,65:3
29,66:3
29,67:5
30,1:1
30,2:1
30,3:1
30,4:1
30,5:1
30,6:1
30,7:1
30,8:1
30,9:3
30,10:2
30,11:1
30,12:2
30,13:2
30,14:2
30,15:2
30,17:2
30,18:3
30,19:3
30,20:3
30,21:3
30,22:3
30,23:3
30,24:3
30,32:3
30,33:3
30,34:3
30,35:3
30,36:1
30,37:1
30,38:1
30,39:4
30,40:4
30,41:3
30,42:1
30,43:4
30,44:4
30,45:4
30,46:4
30,47:4
30,48:5
30,49:4
30,50:1
30,51:1
30,52:3
30,53:3
30,54:1
30,68:2
30,69:3
30,70:2
30,71:5
30,72:2
30,80:2
31,21:3
31,32:3
31,54:1
31,55:1
31,56:1
31,57:1
31,58:3
31,59:3
31,60:3
31,61:3
31,62:3
31,63:1
31,64:3
31,65:3
31,66:3
31,67:5
32,16:3
32,26:3
32,27:3
32,30:3
32,54:4
32,55:4
32,56:4
32,57:4
32,63:4
32,67:2
33,16:3
33,26:3
33,30:3
33,54:4
33,55:4
33,56:4
33,57:4
33,63:4
33,67:2
34,16:3
34,26:3
34,30:3
34,54:4
34,55:4
34,56:4
34,57:4
34,63:4
34,67:2
35,16:3
35,26:3
35,30:3
35,36:2
35,37:2
35,54:4
35,55:4
35,56:4
35,57:4
35,63:4
35,67:2
36,16:1
36,21:2
36,26:1
36,30:1
36,54:2
36,55:2
36,56:2
36,57:2
36,58:2
36,59:2
36,60:2
36,61:2
36,62:2
36,63:2
36,64:2
36,65:2
36,66:2
36,67:4
37,16:1
37,21:2
37,30:1
37,54:2
37,55:2
37,56:2
37,57:2
37,58:2
37,59:2
37,60:2
37,61:2
37,62:2
37,63:2
37,64:2
37,65:2
37,66:2
37,67:4
38,16:1
38,21:2
38,30:1
38,39:3
38,54:2
38,55:2
38,56:2
38,57:2
38,58:2
38,59:2
38,60:2
38,61:2
38,62:2
38,63:2
38,64:2
38,65:2
38,66:2
38,67:4
39,16:4
39,21:1
39,30:4
39,41:1
39,42:5
39,54:5
39,55:5
39,56:5
39,57:5
39,58:1
39,59:1
39,60:1
39,61:1
39,62:1
39,63:5
39,64:1
39,65:1
39,66:1
39,67:1
40,16:4
40,21:1
40,30:4
40,41:1
40,42:5
40,48:1
40,50:5
40,51:5
40,54:5
40,55:5
40,56:5
40,57:5
40,58:1
40,59:1
40,60:1
40,61:1
40,62:1
40,63:5
40,64:1
40,65:1
40,66:1
40,67:1
41,16:3
41,30:3
41,40:1
41,42:4
41,43:1
41,44:1
41,45:1
41,46:1
41,47:1
41,48:2
41,49:1
41,50:4
41,51:4
41,54:4
41,55:4
41,56:4
41,57:4
41,63:4
41,67:2
42,16:1
42,21:4
42,30:1
42,40:5
42,41:4
42,43:5
42,44:5
42,45:5
42,46:5
42,47:5
42,48:6
42,49:5
42,52:4
42,53:4
42,58:4
42,59:4
42,60:4
42,61:4
42,62:4
42,64:4
42,65:4
42,66:4
42,67:6
43,16:4
43,21:1
43,30:4
43,41:1
43,42:5
43,54:5
43,55:5
43,56:5
43,57:5
43,58:1
43,59:1
43,60:1
43,61:1
43,62:1
43,63:5
43,64:1
43,65:1
43,66:1
43,67:1
44,16:4
44,21:1
44,30:4
44,41:1
44,42:5
44,48:1
44,50:5
44,51:5
44,52:1
44,54:5
44,55:5
44,56:5
44,57:5
44,58:1
44,59:1
44,60:1
44,61:1
44,62:1
44,63:5
44,64:1
44,65:1
44,66:1
44,67:1
45,16:4
45,21:1
45,30:4
45,41:1
45,42:5
45,54:5
45,55:5
45,56:5
45,57:5
45,58:1
45,59:1
45,60:1
45,61:1
45,62:1
45,63:5
45,64:1
45,65:1
45,66:1
45,67:1
46,16:4
46,21:1
46,30:4
46,41:1
46,42:5
46,54:5
46,55:5
46,56:5
46,57:5
46,58:1
46,59:1
46,60:1
46,61:1
46,62:1
46,63:5
46,64:1
46,65:1
46,66:1
46,67:1
47,16:4
47,21:1
47,30:4
47,41:1
47,42:5
47,48:1
47,54:5
47,55:5
47,56:5
47,57:5
47,58:1
47,59:1
47,60:1
47,61:1
47,62:1
47,63:5
47,64:1
47,65:1
47,66:1
47,67:1
48,16:5
48,21:2
48,30:5
48,40:1
48,41:2
48,42:6
48,44:1
48,49:1
48,50:6
48,51:6
48,52:2
48,53:2
48,54:6
48,55:6
48,56:6
48,57:6
48,58:2
48,59:2
48,60:2
48,61:2
48,62:2
48,63:6
48,64:2
48,65:2
48,66:2
48,68:3
48,69:2
48,70:3
48,72:3
48,73:3
48,74:3
48,75:3
48,76:3
48,77:5
48,78:5
48,79:5
48,80:3
48,81:5
48,82:6
48,83:6
48,84:5
48,85:6
48,86:6
48,87:6
48,88:6
48,89:6
49,16:4
49,21:1
49,30:4
49,41:1
49,42:5
49,48:1
49,50:5
49,54:5
49,55:5
49,56:5
49,57:5
49,58:1
49,59:1
49,60:1
49,61:1
49,62:1
49,63:5
49,64:1
49,65:1
49,66:1
49,67:1
50,16:1
50,21:4
50,30:1
50,40:5
50,41:4
50,44:5
50,48:6
50,58:4
50,59:4
50,60:4
50,61:4
50,62:4
50,64:4
50,65:4
50,66:4
50,67:6
51,16:1
51,21:4
51,30:1
51,40:5
51,41:4
51,44:5
51,48:6
51,52:4
51,58:4
51,59:4
51,60:4
51,61:4
51,62:4
51,64:4
51,65:4
51,66:4
51,67:6
52,16:3
52,30:3
52,42:4
52,48:2
52,54:4
52,55:4
52,56:4
52,57:4
52,63:4
52,67:2
53,16:3
53,30:3
53,48:2
53,54:4
53,55:4
53,56:4
53,57:4
53,63:4
53,67:2
53,68:1
53,70:1
53,71:2
54,19:4
54,22:4
54,23:4
54,24:4
54,25:1
54,26:1
54,27:1
54,28:1
54,29:1
54,31:1
54,32:4
54,33:4
54,34:4
54,35:4
54,36:2
54,37:2
54,38:2
54,39:5
54,40:5
54,41:4
54,43:5
54,44:5
54,45:5
54,46:5
54,47:5
54,48:6
54,49:5
54,52:4
54,53:4
54,68:3
54,69:4
54,70:3
54,71:6
54,72:3
54,80:3
55,19:4
55,22:4
55,23:4
55,24:4
55,25:1
55,26:1
55,27:1
55,28:1
55,29:1
55,31:1
55,32:4
55,33:4
55,34:4
55,35:4
55,36:2
55,37:2
55,38:2
55,39:5
55,40:5
55,41:4
55,43:5
55,44:5
55,45:5
55,46:5
55,47:5
55,48:6
55,49:5
55,52:4
55,53:4
55,68:3
55,69:4
55,70:3
55,71:6
55,72:3
55,80:3
56,19:4
56,22:4
56,23:4
56,24:4
56,25:1
56,26:1
56,27:1
56,28:1
56,29:1
56,31:1
56,32:4
56,33:4
56,34:4
56,35:4
56,36:2
56,37:2
56,38:2
56,39:5
56,40:5
56,41:4
56,43:5
56,44:5
56,45:5
56,46:5
56,47:5
56,48:6
56,49:5
56,52:4
56,53:4
56,68:3
56,69:4
56,70:3
56,71:6
56,72:3
56,80:3
57,19:4
57,22:4
57,23:4
57,24:4
57,25:1
57,26:1
57,27:1
57,28:1
57,29:1
57,31:1
57,32:4
57,33:4
57,34:4
57,35:4
57,36:2
57,37:2
57,38:2
57,39:5
57,40:5
57,41:4
57,43:5
57,44:5
57,45:5
57,46:5
57,47:5
57,48:6
57,49:5
57,52:4
57,53:4
57,58:4
57,59:4
57,60:4
57,61:4
57,62:4
57,64:4
57,65:4
57,66:4
57,68:3
57,69:4
57,70:3
57,71:6
57,72:3
57,80:3
58,25:3
58,26:3
58,27:3
58,28:3
58,29:3
58,31:3
58,36:2
58,37:2
58,38:2
58,39:1
58,40:1
58,42:4
58,43:1
58,44:1
58,45:1
58,46:1
58,47:1
58,48:2
58,49:1
58,50:4
58,51:4
58,63:4
58,67:2
58,68:1
58,70:1
58,71:2
58,72:1
58,80:1
59,25:3
59,26:3
59,27:3
59,28:3
59,29:3
59,31:3
59,36:2
59,37:2
59,38:2
59,39:1
59,40:1
59,42:4
59,43:1
59,44:1
59,45:1
59,46:1
59,47:1
59,48:2
59,49:1
59,50:4
59,51:4
59,63:4
59,67:2
59,68:1
59,70:1
59,71:2
59,72:1
59,80:1
60,25:3
60,26:3
60,27:3
60,28:3
60,29:3
60,31:3
60,36:2
60,37:2
60,38:2
60,39:1
60,40:1
60,42:4
60,43:1
60,44:1
60,45:1
60,46:1
60,47:1
60,48:2
60,49:1
60,50:4
60,51:4
60,63:4
60,67:2
60,68:1
60,70:1
60,71:2
60,72:1
60,80:1
61,25:3
61,26:3
61,27:3
61,28:3
61,29:3
61,31:3
61,36:2
61,37:2
61,38:2
61,39:1
61,40:1
61,42:4
61,43:1
61,44:1
61,45:1
61,46:1
61,47:1
61,48:2
61,49:1
61,50:4
61,51:4
61,63:4
61,67:2
61,68:1
61,70:1
61,71:2
61,72:1
61,80:1
62,25:3
62,26:3
62,27:3
62,28:3
62,29:3
62,31:3
62,36:2
62,37:2
62,38:2
62,39:1
62,40:1
62,42:4
62,43:1
62,44:1
62,45:1
62,46:1
62,47:1
62,48:2
62,49:1
62,50:4
62,51:4
62,63:4
62,67:2
62,68:1
62,70:1
62,71:2
62,72:1
62,80:1
63,19:4
63,22:4
63,23:4
63,24:4
63,25:1
63,26:1
63,27:1
63,28:1
63,29:1
63,31:1
63,32:4
63,33:4
63,34:4
63,35:4
63,36:2
63,37:2
63,38:2
63,39:5
63,40:5
63,41:4
63,43:5
63,44:5
63,45:5
63,46:5
63,47:5
63,48:6
63,49:5
63,52:4
63,53:4
63,58:4
63,59:4
63,60:4
63,61:4
63,62:4
63,64:4
63,65:4
63,66:4
63,67:6
63,68:3
63,69:4
63,70:3
63,71:6
63,72:3
63,80:3
64,25:3
64,26:3
64,27:3
64,28:3
64,29:3
64,31:3
64,36:2
64,37:2
64,38:2
64,39:1
64,40:1
64,42:4
64,43:1
64,44:1
64,45:1
64,46:1
64,47:1
64,48:2
64,49:1
64,50:4
64,51:4
64,63:4
64,67:2
64,68:1
64,70:1
64,71:2
64,72:1
64,80:1
65,25:3
65,26:3
65,27:3
65,28:3
65,29:3
65,31:3
65,36:2
65,37:2
65,38:2
65,39:1
65,40:1
65,42:4
65,43:1
65,44:1
65,45:1
65,46:1
65,47:1
65,48:2
65,49:1
65,50:4
65,51:4
65,63:4
65,67:2
65,68:1
65,70:1
65,71:2
65,72:1
65,80:1
66,25:3
66,26:3
66,27:3
66,28:3
66,29:3
66,31:3
66,36:2
66,37:2
66,38:2
66,39:1
66,40:1
66,42:4
66,43:1
66,44:1
66,45:1
66,46:1
66,47:1
66,48:2
66,49:1
66,50:4
66,51:4
66,63:4
66,67:2
66,68:1
66,70:1
66,71:2
66,72:1
66,80:1
67,19:2
67,22:2
67,23:2
67,24:2
67,25:5
67,26:5
67,27:5
67,28:5
67,29:5
67,31:5
67,32:2
67,33:2
67,34:2
67,35:2
67,36:4
67,37:4
67,38:4
67,39:1
67,40:1
67,41:2
67,42:6
67,43:1
67,44:1
67,45:1
67,46:1
67,47:1
67,49:1
67,50:6
67,51:6
67,52:2
67,53:2
67,68:3
67,69:2
67,70:3
67,72:3
67,73:3
67,80:3
68,16:2
68,21:1
68,30:2
68,48:3
68,54:3
68,55:3
68,56:3
68,57:3
68,58:1
68,59:1
68,60:1
68,61:1
68,62:1
68,63:3
68,64:1
68,65:1
68,66:1
68,67:3
68,69:1
68,71:3
68,77:2
69,16:3
69,30:3
69,48:2
69,54:4
69,55:4
69,56:4
69,57:4
69,63:4
69,67:2
69,68:1
69,70:1
69,71:2
69,72:1
69,73:1
69,74:1
69,75:1
69,76:1
69,77:3
70,16:2
70,21:1
70,30:2
70,48:3
70,54:3
70,55:3
70,56:3
70,57:3
70,58:1
70,59:1
70,60:1
70,61:1
70,62:1
70,63:3
70,64:1
70,65:1
70,66:1
70,67:3
70,69:1
70,71:3
70,77:2
71,16:5
71,21:2
71,30:5
71,54:6
71,55:6
71,56:6
71,57:6
71,58:2
71,59:2
71,60:2
71,61:2
71,62:2
71,63:6
71,64:2
71,65:2
71,66:2
71,68:3
71,69:2
71,70:3
71,72:3
71,73:3
71,80:3
72,16:2
72,21:1
72,30:2
72,48:3
72,54:3
72,55:3
72,56:3
72,57:3
72,58:1
72,59:1
72,60:1
72,61:1
72,62:1
72,63:3
72,64:1
72,65:1
72,66:1
72,67:3
72,71:3
72,77:2
72,78:2
73,48:3
73,69:1
74,48:3
74,69:1
75,48:3
75,69:1
75,77:2
76,48:3
76,69:1
76,77:2
76,78:2
76,79:2
76,81:2
77,48:5
77,68:2
77,69:3
77,70:2
77,72:2
77,76:2
77,80:2
78,48:5
78,76:2
78,80:2
79,48:5
79,76:2
79,80:2
80,16:2
80,21:1
80,30:2
80,48:3
80,54:3
80,55:3
80,56:3
80,57:3
80,58:1
80,59:1
80,60:1
80,61:1
80,62:1
80,63:3
80,64:1
80,65:1
80,66:1
80,67:3
80,71:3
80,77:2
80,78:2
80,79:2
80,81:2
81,48:5
81,82:1
81,85:1
82,48:6
82,84:1
83,48:6
83,84:1
84,48:5
84,82:1
84,83:1
84,85:1
84,86:1
85,48:6
85,84:1
86,48:6
87,48:6
88,48:6
89,48:6

<setup times backward>
5,9:2
6,9:2
7,9:2
8,9:2
10,1:3
10,2:3
10,3:3
10,4:3
10,5:3
10,6:3
10,7:3
10,8:3
10,9:5
10,11:3
10,30:2
11,9:2
12,1:3
12,2:3
12,3:3
12,4:3
12,5:3
12,6:3
12,7:3
12,8:3
12,9:5
12,11:3
12,30:2
13,1:3
13,2:3
13,3:3
13,4:3
13,5:3
13,6:3
13,7:3
13,8:3
13,9:5
13,11:3
13,30:2
14,1:3
14,2:3
14,3:3
14,4:3
14,5:3
14,6:3
14,7:3
14,8:3
14,9:5
14,11:3
14,30:2
15,1:3
15,2:3
15,3:3
15,4:3
15,5:3
15,6:3
15,7:3
15,8:3
15,9:5
15,11:3
15,16:2
15,30:2
16,1:1
16,2:1
16,3:1
16,4:1
16,5:1
16,6:1
16,7:1
16,8:1
16,9:3
16,11:1
16,18:3
16,19:3
16,20:3
16,21:3
16,22:3
16,23:3
16,24:3
16,32:3
16,33:3
16,34:3
16,35:3
16,36:1
16,37:1
16,38:1
16,39:4
16,40:4
16,41:3
16,43:4
16,44:4
16,45:4
16,46:4
16,47:4
16,48:5
16,49:4
16,52:3
16,53:3
16,68:2
16,69:3
16,70:2
16,71:5
16,72:2
16,80:2
17,1:3
17,2:3
17,3:3
17,4:3
17,5:3
17,6:3
17,7:3
17,8:3
17,9:5
17,11:3
17,16:2
17,30:2
19,67:2
21,39:1
21,40:1
21,43:1
21,44:1
21,45:1
21,46:1
21,47:1
21,48:2
21,49:1
21,71:2
22,67:2
23,67:2
24,67:2
25,1:1
25,2:1
25,3:1
25,4:1
25,5:1
25,6:1
25,7:1
25,8:1
25,9:3
25,11:1
25,18:3
25,19:3
25,20:3
25,21:3
25,22:3
25,23:3
25,24:3
25,58:3
25,59:3
25,60:3
25,61:3
25,62:3
25,64:3
25,65:3
25,66:3
25,67:5
26,1:1
26,2:1
26,3:1
26,4:1
26,5:1
26,6:1
26,7:1
26,8:1
26,9:3
26,11:1
26,18:3
26,19:3
26,20:3
26,21:3
26,22:3
26,23:3
26,24:3
26,32:3
26,33:3
26,34:3
26,35:3
26,36:1
26,58:3
26,59:3
26,60:3
26,61:3
26,62:3
26,64:3
26,65:3
26,66:3
26,67:5
27,1:1
27,2:1
27,3:1
27,4:1
27,5:1
27,6:1
27,7:1
27,8:1
27,9:3
27,11:1
27,18:3
27,19:3
27,20:3
27,21:3
27,22:3
27,23:3
27,24:3
27,32:3
27,58:3
27,59:3
27,60:3
27,61:3
27,62:3
27,64:3
27,65:3
27,66:3
27,67:5
28,1:1
28,2:1
28,3:1
28,4:1
28,5:1
28,6:1
28,7:1
28,8:1
28,9:3
28,11:1
28,18:3
28,19:3
28,20:3
28,21:3
28,22:3
28,23:3
28,24:3
28,58:3
28,59:3
28,60:3
28,61:3
28,62:3
28,64:3
28,65:3
28,66:3
28,67:5
29,1:1
29,2:1
29,3:1
29,4:1
29,5:1
29,6:1
29,7:1
29,8:1
29,9:3
29,11:1
29,18:3
29,19:3
29,20:3
29,21:3
29,22:3
29,23:3
29,24:3
29,58:3
29,59:3
29,60:3
29,61:3
29,62:3
29,64:3
29,65:3
29,66:3
29,67:5
30,1:1
30,2:1
30,3:1
30,4:1
30,5:1
30,6:1
30,7:1
30,8:1
30,9:3
30,11:1
30,18:3
30,19:3
30,20:3
30,21:3
30,22:3
30,23:3
30,24:3
30,32:3
30,33:3
30,34:3
30,35:3
30,36:1
30,37:1
30,38:1
30,39:4
30,40:4
30,41:3
30,43:4
30,44:4
30,45:4
30,46:4
30,47:4
30,48:5
30,49:4
30,52:3
30,53:3
30,68:2
30,69:3
30,70:2
30,71:5
30,72:2
30,80:2
31,1:1
31,2:1
31,3:1
31,4:1
31,5:1
31,6:1
31,7:1
31,8:1
31,9:3
31,11:1
31,18:3
31,19:3
31,20:3
31,21:3
31,22:3
31,23:3
31,24:3
31,58:3
31,59:3
31,60:3
31,61:3
31,62:3
31,64:3
31,65:3
31,66:3
31,67:5
32,67:2
33,67:2
34,67:2
35,67:2
36,9:2
36,18:2
36,19:2
36,20:2
36,21:2
36,22:2
36,23:2
36,24:2
36,32:2
36,33:2
36,34:2
36,35:2
36,58:2
36,59:2
36,60:2
36,61:2
36,62:2
36,64:2
36,65:2
36,66:2
36,67:4
37,9:2
37,18:2
37,19:2
37,20:2
37,21:2
37,22:2
37,23:2
37,24:2
37,32:2
37,33:2
37,34:2
37,35:2
37,58:2
37,59:2
37,60:2
37,61:2
37,62:2
37,64:2
37,65:2
37,66:2
37,67:4
38,9:2
38,18:2
38,19:2
38,20:2
38,21:2
38,22:2
38,23:2
38,24:2
38,32:2
38,33:2
38,34:2
38,35:2
38,58:2
38,59:2
38,60:2
38,61:2
38,62:2
38,64:2
38,65:2
38,66:2
38,67:4
39,67:1
40,48:1
40,67:1
41,39:1
41,40:1
41,43:1
41,44:1
41,45:1
41,46:1
41,47:1
41,48:2
41,49:1
41,67:2
42,1:2
42,2:2
42,3:2
42,4:2
42,5:2
42,6:2
42,7:2
42,8:2
42,9:4
42,11:2
42,16:1
42,18:4
42,19:4
42,20:4
42,21:4
42,22:4
42,23:4
42,24:4
42,25:1
42,26:1
42,27:1
42,28:1
42,29:1
42,30:1
42,31:1
42,32:4
42,33:4
42,34:4
42,35:4
42,36:2
42,37:2
42,38:2
42,39:5
42,40:5
42,41:4
42,43:5
42,44:5
42,45:5
42,46:5
42,47:5
42,48:6
42,49:5
42,52:4
42,58:4
42,59:4
42,60:4
42,61:4
42,62:4
42,64:4
42,65:4
42,66:4
42,67:6
43,67:1
44,48:1
44,67:1
45,67:1
46,67:1
47,67:1
49,48:1
49,67:1
50,1:2
50,2:2
50,3:2
50,4:2
50,5:2
50,6:2
50,7:2
50,8:2
50,9:4
50,11:2
50,16:1
50,18:4
50,19:4
50,20:4
50,21:4
50,22:4
50,23:4
50,24:4
50,25:1
50,26:1
50,27:1
50,28:1
50,29:1
50,30:1
50,31:1
50,32:4
50,33:4
50,34:4
50,35:4
50,36:2
50,37:2
50,38:2
50,39:5
50,40:5
50,41:4
50,43:5
50,44:5
50,45:5
50,46:5
50,47:5
50,48:6
50,49:5
50,58:4
50,59:4
50,60:4
50,61:4
50,62:4
50,64:4
50,65:4
50,66:4
50,67:6
51,1:2
51,2:2
51,3:2
51,4:2
51,5:2
51,6:2
51,7:2
51,8:2
51,9:4
51,11:2
51,16:1
51,18:4
51,19:4
51,20:4
51,21:4
51,22:4
51,23:4
51,24:4
51,25:1
51,26:1
51,27:1
51,28:1
51,29:1
51,30:1
51,31:1
51,32:4
51,33:4
51,34:4
51,35:4
51,36:2
51,37:2
51,38:2
51,39:5
51,40:5
51,41:4
51,43:5
51,44:5
51,45:5
51,46:5
51,47:5
51,48:6
51,49:5
51,58:4
51,59:4
51,60:4
51,61:4
51,62:4
51,64:4
51,65:4
51,66:4
51,67:6
52,39:1
52,40:1
52,43:1
52,44:1
52,45:1
52,46:1
52,47:1
52,48:2
52,49:1
52,67:2
53,39:1
53,40:1
53,43:1
53,44:1
53,45:1
53,46:1
53,47:1
53,48:2
53,49:1
53,67:2
54,1:2
54,2:2
54,3:2
54,4:2
54,5:2
54,6:2
54,7:2
54,8:2
54,9:4
54,11:2
54,16:1
54,18:4
54,19:4
54,20:4
54,21:4
54,22:4
54,23:4
54,24:4
54,25:1
54,26:1
54,27:1
54,28:1
54,29:1
54,30:1
54,31:1
54,32:4
54,33:4
54,34:4
54,35:4
54,36:2
54,37:2
54,38:2
54,39:5
54,40:5
54,41:4
54,43:5
54,44:5
54,45:5
54,46:5
54,47:5
54,48:6
54,49:5
54,52:4
54,53:4
54,68:3
54,69:4
54,70:3
54,71:6
54,72:3
54,80:3
55,1:2
55,2:2
55,3:2
55,4:2
55,5:2
55,6:2
55,7:2
55,8:2
55,9:4
55,11:2
55,16:1
55,18:4
55,19:4
55,20:4
55,21:4
55,22:4
55,23:4
55,24:4
55,25:1
55,26:1
55,27:1
55,28:1
55,29:1
55,30:1
55,31:1
55,32:4
55,33:4
55,34:4
55,35:4
55,36:2
55,37:2
55,38:2
55,39:5
55,40:5
55,41:4
55,43:5
55,44:5
55,45:5
55,46:5
55,47:5
55,48:6
55,49:5
55,52:4
55,53:4
55,68:3
55,69:4
55,70:3
55,71:6
55,72:3
55,80:3
56,1:2
56,2:2
56,3:2
56,4:2
56,5:2
56,6:2
56,7:2
56,8:2
56,9:4
56,11:2
56,16:1
56,18:4
56,19:4
56,20:4
56,21:4
56,22:4
56,23:4
56,24:4
56,25:1
56,26:1
56,27:1
56,28:1
56,29:1
56,30:1
56,31:1
56,32:4
56,33:4
56,34:4
56,35:4
56,36:2
56,37:2
56,38:2
56,39:5
56,40:5
56,41:4
56,43:5
56,44:5
56,45:5
56,46:5
56,47:5
56,48:6
56,49:5
56,52:4
56,53:4
56,68:3
56,69:4
56,70:3
56,71:6
56,72:3
56,80:3
57,1:2
57,2:2
57,3:2
57,4:2
57,5:2
57,6:2
57,7:2
57,8:2
57,9:4
57,11:2
57,16:1
57,18:4
57,19:4
57,20:4
57,21:4
57,22:4
57,23:4
57,24:4
57,25:1
57,26:1
57,27:1
57,28:1
57,29:1
57,30:1
57,31:1
57,32:4
57,33:4
57,34:4
57,35:4
57,36:2
57,37:2
57,38:2
57,39:5
57,40:5
57,41:4
57,43:5
57,44:5
57,45:5
57,46:5
57,47:5
57,48:6
57,49:5
57,52:4
57,53:4
57,68:3
57,69:4
57,70:3
57,71:6
57,72:3
57,80:3
58,39:1
58,40:1
58,43:1
58,44:1
58,45:1
58,46:1
58,47:1
58,48:2
58,49:1
58,71:2
59,39:1
59,40:1
59,43:1
59,44:1
59,45:1
59,46:1
59,47:1
59,48:2
59,49:1
59,71:2
60,39:1
60,40:1
60,43:1
60,44:1
60,45:1
60,46:1
60,47:1
60,48:2
60,49:1
60,71:2
61,39:1
61,40:1
61,43:1
61,44:1
61,45:1
61,46:1
61,47:1
61,48:2
61,49:1
61,71:2
62,39:1
62,40:1
62,43:1
62,44:1
62,45:1
62,46:1
62,47:1
62,48:2
62,49:1
62,71:2
63,1:2
63,2:2
63,3:2
63,4:2
63,5:2
63,6:2
63,7:2
63,8:2
63,9:4
63,11:2
63,16:1
63,18:4
63,19:4
63,20:4
63,21:4
63,22:4
63,23:4
63,24:4
63,25:1
63,26:1
63,27:1
63,28:1
63,29:1
63,30:1
63,31:1
63,32:4
63,33:4
63,34:4
63,35:4
63,36:2
63,37:2
63,38:2
63,39:5
63,40:5
63,41:4
63,43:5
63,44:5
63,45:5
63,46:5
63,47:5
63,48:6
63,49:5
63,52:4
63,53:4
63,58:4
63,59:4
63,60:4
63,61:4
63,62:4
63,64:4
63,65:4
63,66:4
63,68:3
63,69:4
63,70:3
63,71:6
63,72:3
63,80:3
64,39:1
64,40:1
64,43:1
64,44:1
64,45:1
64,46:1
64,47:1
64,48:2
64,49:1
64,71:2
65,39:1
65,40:1
65,43:1
65,44:1
65,45:1
65,46:1
65,47:1
65,48:2
65,49:1
65,71:2
66,39:1
66,40:1
66,43:1
66,44:1
66,45:1
66,46:1
66,47:1
66,48:2
66,49:1
66,71:2
68,9:1
68,18:1
68,19:1
68,20:1
68,21:1
68,22:1
68,23:1
68,24:1
68,32:1
68,33:1
68,34:1
68,35:1
68,39:2
68,40:2
68,41:1
68,43:2
68,44:2
68,45:2
68,46:2
68,47:2
68,48:3
68,49:2
68,52:1
68,53:1
68,58:1
68,59:1
68,60:1
68,61:1
68,62:1
68,64:1
68,65:1
68,66:1
68,67:3
68,69:1
68,71:3
69,39:1
69,40:1
69,43:1
69,44:1
69,45:1
69,46:1
69,47:1
69,48:2
69,49:1
69,67:2
69,71:2
70,9:1
70,18:1
70,19:1
70,20:1
70,21:1
70,22:1
70,23:1
70,24:1
70,32:1
70,33:1
70,34:1
70,35:1
70,39:2
70,40:2
70,41:1
70,43:2
70,44:2
70,45:2
70,46:2
70,47:2
70,48:3
70,49:2
70,52:1
70,53:1
70,58:1
70,59:1
70,60:1
70,61:1
70,62:1
70,64:1
70,65:1
70,66:1
70,67:3
70,69:1
70,71:3
72,9:1
72,18:1
72,19:1
72,20:1
72,21:1
72,22:1
72,23:1
72,24:1
72,32:1
72,33:1
72,34:1
72,35:1
72,39:2
72,40:2
72,41:1
72,43:2
72,44:2
72,45:2
72,46:2
72,47:2
72,48:3
72,49:2
72,52:1
72,53:1
72,58:1
72,59:1
72,60:1
72,61:1
72,62:1
72,64:1
72,65:1
72,66:1
72,67:3
72,69:1
72,71:3
73,9:1
73,18:1
73,19:1
73,20:1
73,21:1
73,22:1
73,23:1
73,24:1
73,32:1
73,33:1
73,34:1
73,35:1
73,39:2
73,40:2
73,41:1
73,43:2
73,44:2
73,45:2
73,46:2
73,47:2
73,48:3
73,49:2
73,52:1
73,53:1
73,58:1
73,59:1
73,60:1
73,61:1
73,62:1
73,64:1
73,65:1
73,66:1
73,67:3
73,69:1
73,71:3
74,9:1
74,18:1
74,19:1
74,20:1
74,21:1
74,22:1
74,23:1
74,24:1
74,32:1
74,33:1
74,34:1
74,35:1
74,39:2
74,40:2
74,41:1
74,43:2
74,44:2
74,45:2
74,46:2
74,47:2
74,48:3
74,49:2
74,52:1
74,53:1
74,58:1
74,59:1
74,60:1
74,61:1
74,62:1
74,64:1
74,65:1
74,66:1
74,67:3
74,69:1
74,71:3
75,9:1
75,18:1
75,19:1
75,20:1
75,21:1
75,22:1
75,23:1
75,24:1
75,32:1
75,33:1
75,34:1
75,35:1
75,39:2
75,40:2
75,41:1
75,43:2
75,44:2
75,45:2
75,46:2
75,47:2
75,48:3
75,49:2
75,52:1
75,53:1
75,58:1
75,59:1
75,60:1
75,61:1
75,62:1
75,64:1
75,65:1
75,66:1
75,67:3
75,69:1
75,71:3
76,9:1
76,18:1
76,19:1
76,20:1
76,21:1
76,22:1
76,23:1
76,24:1
76,32:1
76,33:1
76,34:1
76,35:1
76,39:2
76,40:2
76,41:1
76,43:2
76,44:2
76,45:2
76,46:2
76,47:2
76,48:3
76,49:2
76,52:1
76,53:1
76,58:1
76,59:1
76,60:1
76,61:1
76,62:1
76,64:1
76,65:1
76,66:1
76,67:3
76,69:1
76,71:3
77,1:1
77,2:1
77,3:1
77,4:1
77,5:1
77,6:1
77,7:1
77,8:1
77,9:3
77,11:1
77,18:3
77,19:3
77,20:3
77,21:3
77,22:3
77,23:3
77,24:3
77,32:3
77,33:3
77,34:3
77,35:3
77,36:1
77,37:1
77,38:1
77,39:4
77,40:4
77,41:3
77,43:4
77,44:4
77,45:4
77,46:4
77,47:4
77,48:5
77,49:4
77,52:3
77,53:3
77,58:3
77,59:3
77,60:3
77,61:3
77,62:3
77,64:3
77,65:3
77,66:3
77,67:5
77,68:2
77,69:3
77,70:2
77,71:5
77,72:2
77,73:2
77,74:2
77,75:2
77,76:2
77,80:2
78,1:1
78,2:1
78,3:1
78,4:1
78,5:1
78,6:1
78,7:1
78,8:1
78,9:3
78,11:1
78,18:3
78,19:3
78,20:3
78,21:3
78,22:3
78,23:3
78,24:3
78,32:3
78,33:3
78,34:3
78,35:3
78,36:1
78,37:1
78,38:1
78,39:4
78,40:4
78,41:3
78,43:4
78,44:4
78,45:4
78,46:4
78,47:4
78,48:5
78,49:4
78,52:3
78,53:3
78,58:3
78,59:3
78,60:3
78,61:3
78,62:3
78,64:3
78,65:3
78,66:3
78,67:5
78,68:2
78,69:3
78,70:2
78,71:5
78,72:2
78,73:2
78,74:2
78,75:2
78,76:2
78,80:2
79,1:1
79,2:1
79,3:1
79,4:1
79,5:1
79,6:1
79,7:1
79,8:1
79,9:3
79,11:1
79,18:3
79,19:3
79,20:3
79,21:3
79,22:3
79,23:3
79,24:3
79,32:3
79,33:3
79,34:3
79,35:3
79,36:1
79,37:1
79,38:1
79,39:4
79,40:4
79,41:3
79,43:4
79,44:4
79,45:4
79,46:4
79,47:4
79,48:5
79,49:4
79,52:3
79,53:3
79,58:3
79,59:3
79,60:3
79,61:3
79,62:3
79,64:3
79,65:3
79,66:3
79,67:5
79,68:2
79,69:3
79,70:2
79,71:5
79,72:2
79,73:2
79,74:2
79,75:2
79,76:2
79,80:2
80,9:1
80,18:1
80,19:1
80,20:1
80,21:1
80,22:1
80,23:1
80,24:1
80,32:1
80,33:1
80,34:1
80,35:1
80,39:2
80,40:2
80,41:1
80,43:2
80,44:2
80,45:2
80,46:2
80,47:2
80,48:3
80,49:2
80,52:1
80,53:1
80,58:1
80,59:1
80,60:1
80,61:1
80,62:1
80,64:1
80,65:1
80,66:1
80,67:3
80,69:1
80,71:3
81,1:1
81,2:1
81,3:1
81,4:1
81,5:1
81,6:1
81,7:1
81,8:1
81,9:3
81,11:1
81,18:3
81,19:3
81,20:3
81,21:3
81,22:3
81,23:3
81,24:3
81,32:3
81,33:3
81,34:3
81,35:3
81,36:1
81,37:1
81,38:1
81,39:4
81,40:4
81,41:3
81,43:4
81,44:4
81,45:4
81,46:4
81,47:4
81,48:5
81,49:4
81,52:3
81,53:3
81,58:3
81,59:3
81,60:3
81,61:3
81,62:3
81,64:3
81,65:3
81,66:3
81,67:5
81,68:2
81,69:3
81,70:2
81,71:5
81,72:2
81,73:2
81,74:2
81,75:2
81,76:2
81,80:2
82,1:2
82,2:2
82,3:2
82,4:2
82,5:2
82,6:2
82,7:2
82,8:2
82,9:4
82,11:2
82,16:1
82,18:4
82,19:4
82,20:4
82,21:4
82,22:4
82,23:4
82,24:4
82,25:1
82,26:1
82,27:1
82,28:1
82,29:1
82,30:1
82,31:1
82,32:4
82,33:4
82,34:4
82,35:4
82,36:2
82,37:2
82,38:2
82,39:5
82,40:5
82,41:4
82,43:5
82,44:5
82,45:5
82,46:5
82,47:5
82,48:6
82,49:5
82,52:4
82,53:4
82,58:4
82,59:4
82,60:4
82,61:4
82,62:4
82,64:4
82,65:4
82,66:4
82,67:6
82,68:3
82,69:4
82,70:3
82,71:6
82,72:3
82,73:3
82,74:3
82,75:3
82,76:3
82,77:1
82,78:1
82,79:1
82,80:3
82,81:1
82,84:1
83,1:2
83,2:2
83,3:2
83,4:2
83,5:2
83,6:2
83,7:2
83,8:2
83,9:4
83,11:2
83,16:1
83,18:4
83,19:4
83,20:4
83,21:4
83,22:4
83,23:4
83,24:4
83,25:1
83,26:1
83,27:1
83,28:1
83,29:1
83,30:1
83,31:1
83,32:4
83,33:4
83,34:4
83,35:4
83,36:2
83,37:2
83,38:2
83,39:5
83,40:5
83,41:4
83,43:5
83,44:5
83,45:5
83,46:5
83,47:5
83,48:6
83,49:5
83,52:4
83,53:4
83,58:4
83,59:4
83,60:4
83,61:4
83,62:4
83,64:4
83,65:4
83,66:4
83,67:6
83,68:3
83,69:4
83,70:3
83,71:6
83,72:3
83,73:3
83,74:3
83,75:3
83,76:3
83,77:1
83,78:1
83,79:1
83,80:3
83,81:1
83,84:1
84,1:1
84,2:1
84,3:1
84,4:1
84,5:1
84,6:1
84,7:1
84,8:1
84,9:3
84,11:1
84,18:3
84,19:3
84,20:3
84,21:3
84,22:3
84,23:3
84,24:3
84,32:3
84,33:3
84,34:3
84,35:3
84,36:1
84,37:1
84,38:1
84,39:4
84,40:4
84,41:3
84,43:4
84,44:4
84,45:4
84,46:4
84,47:4
84,48:5
84,49:4
84,52:3
84,53:3
84,58:3
84,59:3
84,60:3
84,61:3
84,62:3
84,64:3
84,65:3
84,66:3
84,67:5
84,68:2
84,69:3
84,70:2
84,71:5
84,72:2
84,73:2
84,74:2
84,75:2
84,76:2
84,80:2
85,1:2
85,2:2
85,3:2
85,4:2
85,5:2
85,6:2
85,7:2
85,8:2
85,9:4
85,11:2
85,16:1
85,18:4
85,19:4
85,20:4
85,21:4
85,22:4
85,23:4
85,24:4
85,25:1
85,26:1
85,27:1
85,28:1
85,29:1
85,30:1
85,31:1
85,32:4
85,33:4
85,34:4
85,35:4
85,36:2
85,37:2
85,38:2
85,39:5
85,40:5
85,41:4
85,43:5
85,44:5
85,45:5
85,46:5
85,47:5
85,48:6
85,49:5
85,52:4
85,53:4
85,58:4
85,59:4
85,60:4
85,61:4
85,62:4
85,64:4
85,65:4
85,66:4
85,67:6
85,68:3
85,69:4
85,70:3
85,71:6
85,72:3
85,73:3
85,74:3
85,75:3
85,76:3
85,77:1
85,78:1
85,79:1
85,80:3
85,81:1
85,84:1
86,1:2
86,2:2
86,3:2
86,4:2
86,5:2
86,6:2
86,7:2
86,8:2
86,9:4
86,11:2
86,16:1
86,18:4
86,19:4
86,20:4
86,21:4
86,22:4
86,23:4
86,24:4
86,25:1
86,26:1
86,27:1
86,28:1
86,29:1
86,30:1
86,31:1
86,32:4
86,33:4
86,34:4
86,35:4
86,36:2
86,37:2
86,38:2
86,39:5
86,40:5
86,41:4
86,43:5
86,44:5
86,45:5
86,46:5
86,47:5
86,48:6
86,49:5
86,52:4
86,53:4
86,58:4
86,59:4
86,60:4
86,61:4
86,62:4
86,64:4
86,65:4
86,66:4
86,67:6
86,68:3
86,69:4
86,70:3
86,71:6
86,72:3
86,73:3
86,74:3
86,75:3
86,76:3
86,77:1
86,78:1
86,79:1
86,80:3
86,81:1
86,84:1
87,1:2
87,2:2
87,3:2
87,4:2
87,5:2
87,6:2
87,7:2
87,8:2
87,9:4
87,11:2
87,16:1
87,18:4
87,19:4
87,20:4
87,21:4
87,22:4
87,23:4
87,24:4
87,25:1
87,26:1
87,27:1
87,28:1
87,29:1
87,30:1
87,31:1
87,32:4
87,33:4
87,34:4
87,35:4
87,36:2
87,37:2
87,38:2
87,39:5
87,40:5
87,41:4
87,43:5
87,44:5
87,45:5
87,46:5
87,47:5
87,48:6
87,49:5
87,52:4
87,53:4
87,58:4
87,59:4
87,60:4
87,61:4
87,62:4
87,64:4
87,65:4
87,66:4
87,67:6
87,68:3
87,69:4
87,70:3
87,71:6
87,72:3
87,73:3
87,74:3
87,75:3
87,76:3
87,77:1
87,78:1
87,79:1
87,80:3
87,81:1
87,84:1
88,1:2
88,2:2
88,3:2
88,4:2
88,5:2
88,6:2
88,7:2
88,8:2
88,9:4
88,11:2
88,16:1
88,18:4
88,19:4
88,20:4
88,21:4
88,22:4
88,23:4
88,24:4
88,25:1
88,26:1
88,27:1
88,28:1
88,29:1
88,30:1
88,31:1
88,32:4
88,33:4
88,34:4
88,35:4
88,36:2
88,37:2
88,38:2
88,39:5
88,40:5
88,41:4
88,43:5
88,44:5
88,45:5
88,46:5
88,47:5
88,48:6
88,49:5
88,52:4
88,53:4
88,58:4
88,59:4
88,60:4
88,61:4
88,62:4
88,64:4
88,65:4
88,66:4
88,67:6
88,68:3
88,69:4
88,70:3
88,71:6
88,72:3
88,73:3
88,74:3
88,75:3
88,76:3
88,77:1
88,78:1
88,79:1
88,80:3
88,81:1
88,84:1
89,1:2
89,2:2
89,3:2
89,4:2
89,5:2
89,6:2
89,7:2
89,8:2
89,9:4
89,11:2
89,16:1
89,18:4
89,19:4
89,20:4
89,21:4
89,22:4
89,23:4
89,24:4
89,25:1
89,26:1
89,27:1
89,28:1
89,29:1
89,30:1
89,31:1
89,32:4
89,33:4
89,34:4
89,35:4
89,36:2
89,37:2
89,38:2
89,39:5
89,40:5
89,41:4
89,43:5
89,44:5
89,45:5
89,46:5
89,47:5
89,48:6
89,49:5
89,52:4
89,53:4
89,58:4
89,59:4
89,60:4
89,61:4
89,62:4
89,64:4
89,65:4
89,66:4
89,67:6
89,68:3
89,69:4
89,70:3
89,71:6
89,72:3
89,73:3
89,74:3
89,75:3
89,76:3
89,77:1
89,78:1
89,79:1
89,80:3
89,81:1
89,84:1

<end>

<optimal SALBP-1 value>
14


<rand seed>
467321153

<Lower Bounds>
Lm1=13
Lms1=13
Lm2=2
Lm3=2
Lm4=13
Best=13

<Optimal Stations (Iterations: 10)>
15
